Route_0
50	50
168	18
269	10
430	54
367	138
299	134
282	153
357	248
455	215
461	262
416	298
410	340
437	477
352	489
308	336
178	446
144	412
98	284
74	190
20	118
30	71
50	50
Route_1
50	50
83	166
108	211
114	238
154	235
167	163
164	109
94	60
50	25
50	25
50	25
50	25
50	25
50	25
50	25
50	25
50	25
50	25
50	25
50	25
50	50
